35
1 0 12
2 0 8
2 1 16
3 0 40
3 1 42
3 2 31
4 0 48
4 1 46
4 2 30
4 3 31
5 0 32
5 1 30
5 2 20
5 3 7
5 4 7
6 0 11
6 1 22
6 2 28
6 3 27
6 4 18
6 5 19
7 0 15
7 1 4
7 2 10
7 3 18
7 4 37
7 5 41
7 6 42
8 0 36
8 1 44
8 2 31
8 3 28
8 4 23
8 5 22
8 6 7
8 7 40
9 0 33
9 1 3
9 2 33
9 3 49
9 4 22
9 5 2
9 6 42
9 7 45
9 8 10
10 0 5
10 1 46
10 2 6
10 3 10
10 4 14
10 5 47
10 6 25
10 7 32
10 8 28
10 9 42
11 0 50
11 1 42
11 2 13
11 3 40
11 4 10
11 5 17
11 6 42
11 7 36
11 8 12
11 9 45
11 10 2
12 0 9
12 1 13
12 2 24
12 3 15
12 4 9
12 5 19
12 6 4
12 7 47
12 8 49
12 9 35
12 10 48
12 11 28
13 0 38
13 1 12
13 2 15
13 3 25
13 4 6
13 5 20
13 6 25
13 7 29
13 8 46
13 9 25
13 10 49
13 11 11
13 12 12
14 0 36
14 1 37
14 2 39
14 3 50
14 4 50
14 5 2
14 6 36
14 7 37
14 8 10
14 9 23
14 10 45
14 11 37
14 12 19
14 13 35
15 0 48
15 1 14
15 2 42
15 3 2
15 4 1
15 5 37
15 6 32
15 7 16
15 8 35
15 9 43
15 10 21
15 11 45
15 12 17
15 13 23
15 14 43
16 0 48
16 1 3
16 2 18
16 3 14
16 4 4
16 5 48
16 6 9
16 7 39
16 8 40
16 9 20
16 10 24
16 11 15
16 12 47
16 13 25
16 14 17
16 15 29
17 0 30
17 1 6
17 2 14
17 3 16
17 4 6
17 5 41
17 6 5
17 7 34
17 8 36
17 9 48
17 10 10
17 11 32
17 12 12
17 13 22
17 14 11
17 15 33
17 16 18
18 0 9
18 1 24
18 2 5
18 3 10
18 4 5
18 5 47
18 6 49
18 7 15
18 8 9
18 9 7
18 10 8
18 11 6
18 12 2
18 13 18
18 14 4
18 15 42
18 16 48
18 17 25
19 0 29
19 1 43
19 2 20
19 3 46
19 4 16
19 5 18
19 6 11
19 7 49
19 8 6
19 9 6
19 10 21
19 11 8
19 12 2
19 13 44
19 14 4
19 15 35
19 16 41
19 17 13
19 18 31
20 0 31
20 1 29
20 2 16
20 3 29
20 4 11
20 5 14
20 6 32
20 7 42
20 8 14
20 9 31
20 10 47
20 11 37
20 12 5
20 13 26
20 14 28
20 15 18
20 16 35
20 17 6
20 18 11
20 19 17
21 0 35
21 1 47
21 2 47
21 3 35
21 4 4
21 5 41
21 6 50
21 7 25
21 8 32
21 9 36
21 10 20
21 11 31
21 12 43
21 13 17
21 14 8
21 15 32
21 16 27
21 17 19
21 18 14
21 19 40
21 20 9
22 0 35
22 1 24
22 2 24
22 3 26
22 4 41
22 5 42
22 6 33
22 7 5
22 8 27
22 9 49
22 10 18
22 11 50
22 12 23
22 13 25
22 14 45
22 15 18
22 16 39
22 17 29
22 18 30
22 19 49
22 20 42
22 21 18
23 0 10
23 1 11
23 2 47
23 3 7
23 4 8
23 5 47
23 6 24
23 7 31
23 8 27
23 9 31
23 10 40
23 11 40
23 12 13
23 13 7
23 14 47
23 15 13
23 16 40
23 17 26
23 18 50
23 19 41
23 20 30
23 21 17
23 22 18
24 0 40
24 1 49
24 2 28
24 3 33
24 4 31
24 5 7
24 6 11
24 7 7
24 8 9
24 9 27
24 10 42
24 11 3
24 12 18
24 13 37
24 14 1
24 15 1
24 16 32
24 17 28
24 18 4
24 19 27
24 20 32
24 21 16
24 22 48
24 23 19
25 0 49
25 1 46
25 2 40
25 3 4
25 4 45
25 5 38
25 6 39
25 7 46
25 8 28
25 9 13
25 10 5
25 11 20
25 12 39
25 13 29
25 14 13
25 15 34
25 16 41
25 17 3
25 18 11
25 19 35
25 20 14
25 21 1
25 22 33
25 23 5
25 24 25
26 0 21
26 1 39
26 2 36
26 3 41
26 4 6
26 5 10
26 6 38
26 7 22
26 8 1
26 9 45
26 10 33
26 11 8
26 12 10
26 13 25
26 14 6
26 15 48
26 16 39
26 17 43
26 18 16
26 19 8
26 20 14
26 21 4
26 22 36
26 23 42
26 24 29
26 25 33
27 0 10
27 1 21
27 2 42
27 3 38
27 4 30
27 5 4
27 6 41
27 7 12
27 8 33
27 9 43
27 10 34
27 11 1
27 12 3
27 13 50
27 14 3
27 15 24
27 16 3
27 17 44
27 18 1
27 19 26
27 20 37
27 21 11
27 22 14
27 23 45
27 24 10
27 25 44
27 26 31
28 0 22
28 1 48
28 2 3
28 3 25
28 4 5
28 5 21
28 6 3
28 7 17
28 8 43
28 9 15
28 10 32
28 11 44
28 12 49
28 13 9
28 14 32
28 15 29
28 16 7
28 17 36
28 18 29
28 19 6
28 20 33
28 21 14
28 22 21
28 23 9
28 24 17
28 25 32
28 26 19
28 27 22
29 0 6
29 1 24
29 2 37
29 3 10
29 4 21
29 5 31
29 6 10
29 7 45
29 8 35
29 9 48
29 10 38
29 11 7
29 12 41
29 13 6
29 14 28
29 15 8
29 16 7
29 17 44
29 18 4
29 19 10
29 20 26
29 21 40
29 22 19
29 23 30
29 24 26
29 25 50
29 26 41
29 27 39
29 28 29
30 0 40
30 1 41
30 2 3
30 3 43
30 4 22
30 5 48
30 6 48
30 7 13
30 8 32
30 9 28
30 10 39
30 11 26
30 12 11
30 13 8
30 14 27
30 15 24
30 16 9
30 17 48
30 18 46
30 19 10
30 20 12
30 21 39
30 22 43
30 23 50
30 24 7
30 25 23
30 26 18
30 27 49
30 28 47
30 29 21
31 0 3
31 1 34
31 2 26
31 3 49
31 4 8
31 5 30
31 6 14
31 7 35
31 8 17
31 9 40
31 10 40
31 11 32
31 12 7
31 13 5
31 14 32
31 15 28
31 16 29
31 17 15
31 18 2
31 19 14
31 20 11
31 21 29
31 22 38
31 23 35
31 24 46
31 25 46
31 26 27
31 27 20
31 28 42
31 29 11
31 30 39
32 0 31
32 1 35
32 2 28
32 3 32
32 4 2
32 5 5
32 6 31
32 7 20
32 8 42
32 9 25
32 10 17
32 11 48
32 12 41
32 13 8
32 14 12
32 15 42
32 16 29
32 17 17
32 18 50
32 19 39
32 20 2
32 21 6
32 22 14
32 23 10
32 24 39
32 25 2
32 26 43
32 27 44
32 28 3
32 29 13
32 30 25
32 31 28
33 0 24
33 1 45
33 2 8
33 3 28
33 4 26
33 5 45
33 6 30
33 7 20
33 8 27
33 9 17
33 10 7
33 11 4
33 12 50
33 13 19
33 14 30
33 15 35
33 16 42
33 17 45
33 18 13
33 19 10
33 20 23
33 21 39
33 22 31
33 23 31
33 24 30
33 25 12
33 26 12
33 27 15
33 28 4
33 29 38
33 30 38
33 31 33
33 32 17
34 0 27
34 1 15
34 2 27
34 3 49
34 4 10
34 5 17
34 6 18
34 7 50
34 8 41
34 9 9
34 10 25
34 11 15
34 12 41
34 13 14
34 14 33
34 15 31
34 16 36
34 17 17
34 18 50
34 19 5
34 20 33
34 21 40
34 22 31
34 23 4
34 24 6
34 25 48
34 26 18
34 27 33
34 28 28
34 29 13
34 30 50
34 31 27
34 32 16
34 33 6
